;; Preprocessed for Astral solver
(set-info :status sat)
;; variables
(declare-const x0 Loc)
(declare-const x1 Loc)
(declare-const x2 Loc)
(declare-const x3 Loc)
(declare-const x4 Loc)
(declare-const x5 Loc)
(declare-const x6 Loc)
(declare-const x7 Loc)
(declare-const x8 Loc)
(declare-const x9 Loc)
(declare-const x10 Loc)
(declare-const x11 Loc)
(declare-const x12 Loc)
(declare-const x13 Loc)
(declare-const x14 Loc)
(declare-const x15 Loc)
(declare-const x16 Loc)
(declare-const x17 Loc)
(declare-const x18 Loc)
(declare-const x19 Loc)
(declare-const x20 Loc)
(declare-const x21 Loc)
(declare-const x22 Loc)

(assert 
		(sep 
			(= nil nil)
		(sep 
			(ls x4 x8 )
			(pto x9 x13)
			(pto x11 x5)
			(pto x15 x2)
			(ls x12 x9 )
			(ls x13 x5 )
			(pto x14 x3)
			(ls x5 x13 )
			(pto x7 x17)
			(pto x6 x3)
			(pto x18 x7)
			(pto x10 x16)
			(pto x2 x11)
			(pto x16 x3)
			(ls x17 x1 )
			(pto x8 x17)
			(pto x1 x4)
			(ls x3 x14 )
		)

		)

)

(assert (not 
		(sep 
			(ls x8 x17 )
			(ls x14 x3 )
			(ls x15 x11 )
			(ls x6 x3 )
			(ls x10 x16 )
			(ls x16 x14 )
			(ls x18 x8 )
			(ls x12 x5 )
			(ls x11 x13 )
		)

))

(check-sat)
